GLPSOL--GLPK LP/MIP Solver 5.0
Parameter(s) specified in the command line:
 --lp ../modeles/2_69.lp --log 2_69.log
Reading problem data from '../modeles/2_69.lp'...
147 rows, 280 columns, 976 non-zeros
138 integer variables, all of which are binary
435 lines were read
GLPK Integer Optimizer 5.0
147 rows, 280 columns, 976 non-zeros
138 integer variables, all of which are binary
Preprocessing...
140 constraint coefficient(s) were reduced
147 rows, 278 columns, 974 non-zeros
138 integer variables, all of which are binary
Scaling...
 A: min|aij| =  8.402e-04  max|aij| =  4.000e+00  ratio =  4.761e+03
GM: min|aij| =  1.204e-01  max|aij| =  8.307e+00  ratio =  6.900e+01
EQ: min|aij| =  1.449e-02  max|aij| =  1.000e+00  ratio =  6.900e+01
2N: min|aij| =  1.344e-02  max|aij| =  1.695e+00  ratio =  1.261e+02
Constructing initial basis...
Size of triangular part is 147
Solving LP relaxation...
GLPK Simplex Optimizer 5.0
147 rows, 278 columns, 974 non-zeros
      0: obj =   4.000000000e+00 inf =   9.500e+00 (5)
     21: obj =   4.992647059e-01 inf =   0.000e+00 (0)
*    78: obj =  -1.413194444e+00 inf =   0.000e+00 (0)
OPTIMAL LP SOLUTION FOUND
Integer optimization begins...
Long-step dual simplex will be used
+    78: mip =     not found yet >=              -inf        (1; 0)
+   117: >>>>>  -1.413194444e+00 >=  -1.413194444e+00 < 0.1% (39; 0)
+   117: mip =  -1.413194444e+00 >=     tree is empty   0.0% (0; 77)
INTEGER OPTIMAL SOLUTION FOUND
Time used:   0.0 secs
Memory used: 0.4 Mb (469314 bytes)
